N = 9;
H = 5;
T = 2;

avail = array3d(1..N, 1..H, 1..T, [3, 9, 5, 8, 1, 10, 10, 10, 10, 6, 10, 6, 10, 7, 5, 9, 5, 7, 3, 3, 8, 0, 8, 8, 8, 3, 0, 4, 2, 9, 2, 8, 5, 1, 3, 3, 2, 3, 3, 6, 7, 5, 1, 5, 8, 7, 0, 2, 2, 8, 7, 7, 6, 7, 1, 5, 10, 7, 0, 9, 7, 8, 8, 6, 2, 7, 6, 2, 10, 7, 1, 10, 9, 10, 10, 6, 2, 5, 3, 10, 7, 8, 10, 3, 8, 10, 7, 10, 1, 4]);

r = array2d(1..H, 1..T, [3, 5, 2, 4, 1, 2, 2, 3, 1, 3]);
